max: -5.0v1  - 1.0v2  - 2.0v3  - 1.0v4  - 4.0v5  - 3.0v7 + 1.0v8  - 4.0v9  - 5.0v10 + 5.0v11 + 8.0v12 + 11.0v13 + 2.0v14 + 4.0v15 + 3.0v17  - 3.0v19 + 5.0v20  - 6.0v21  - 2.0v22  - 10.0v23  - 6.0v27 + 3.0v28  - 3.0v29 + 1.0v31 + 1.0v32 + 1.0v33  - 4.0v34  - 4.0v35  - 2.0v36 + 1.0v37 + 5.0v38 + 6.0v39  - 4.0v40  - 2.0v41  - 3.0v42 + 6.0v43 + 1.0v44 + 5.0v45  - 2.0v46 + 2.0v47 + 3.0v48  - 3.0v49 + 1.0v50;

v41 + v50 + v20 >= 0;
1 - v11 + v45 + 1 - v27 >= 0;
1 - v40 + v47 + 1 - v23 >= 0;
v44 + v31 + v21 >= 0;
1 - v10 + v33 + 1 - v6 >= 0;
1 - v29 + v2 + v35 >= 0;
1 - v21 + v20 + v47 >= 0;
v31 + 1 - v3 + v8 >= 0;
v50 + 1 - v34 + v40 >= 0;
1 - v27 + 1 - v5 + v40 >= 0;
v18 + v16 + v3 >= 0;
v5 + 1 - v34 + 1 - v32 >= 0;
v12 + v11 + 1 - v46 >= 0;
v28 + 1 - v12 + v20 >= 0;
v24 + 1 - v9 + v18 >= 0;
v14 + v9 + 1 - v21 >= 0;
v27 + v15 + 1 - v18 >= 0;
1 - v2 + 1 - v27 + v8 >= 0;
v34 + 1 - v23 + v32 >= 0;
1 - v17 + 1 - v14 + v22 >= 0;
v39 + v40 + 1 - v21 >= 0;
v42 + 1 - v32 + v45 >= 0;
v6 + 1 - v42 + 1 - v36 >= 0;
v34 + 1 - v23 + 1 - v3 >= 0;
v30 + 1 - v42 + 1 - v6 >= 0;
1 - v14 + v15 + 1 - v22 >= 0;
v15 + 1 - v9 + v10 >= 0;
1 - v30 + 1 - v41 + 1 - v5 >= 0;
1 - v27 + 1 - v3 + 1 - v38 >= 0;
v22 + 1 - v20 + v35 >= 0;
v37 + 1 - v10 + v38 >= 0;
1 - v35 + v48 + v24 >= 0;
1 - v13 + 1 - v1 + v17 >= 0;
v20 + v45 + v39 >= 0;
v34 + 1 - v42 + v2 >= 0;
v43 + 1 - v48 + v6 >= 0;
1 - v47 + 1 - v27 + v45 >= 0;
v3 + 1 - v49 + v30 >= 0;
v22 + v12 + 1 - v17 >= 0;
1 - v29 + v7 + v31 >= 0;
v49 + v5 + 1 - v16 >= 0;
v26 + v14 + v22 >= 0;
v37 + 1 - v8 + v18 >= 0;
v39 + v50 + 1 - v21 >= 0;
v44 + v39 + v1 >= 0;
v43 + 1 - v18 + v8 >= 0;
v48 + 1 - v25 + v17 >= 0;
1 - v10 + v12 + v19 >= 0;
1 - v36 + 1 - v41 + v12 >= 0;
v34 + 1 - v36 + v29 >= 0;
1 - v21 + 1 - v16 + 1 - v29 >= 0;
v40 + 1 - v48 + 1 - v5 >= 0;
1 - v9 + 1 - v10 + 1 - v28 >= 0;
1 - v32 + v21 + v46 >= 0;
v11 + 1 - v41 + 1 - v29 >= 0;
1 - v34 + v5 + v29 >= 0;
v15 + v2 + v14 >= 0;
v29 + v11 + v22 >= 0;
1 - v40 + v38 + 1 - v23 >= 0;
v36 + 1 - v26 + v19 >= 0;
1 - v14 + 1 - v23 + v13 >= 0;
v2 + 1 - v14 + v19 >= 0;
1 - v28 + v13 + 1 - v30 >= 0;
v1 + 1 - v9 + 1 - v24 >= 0;
v50 + 1 - v29 + v13 >= 0;
1 - v27 + 1 - v7 + v25 >= 0;
v6 + v1 + v37 >= 0;
v43 + 1 - v44 + v34 >= 0;
1 - v9 + v43 + v12 >= 0;
1 - v19 + 1 - v15 + 1 - v35 >= 0;
1 - v34 + 1 - v10 + 1 - v9 >= 0;
1 - v4 + 1 - v34 + 1 - v18 >= 0;
1 - v20 + 1 - v44 + 1 - v23 >= 0;
1 - v1 + 1 - v29 + 1 - v37 >= 0;
1 - v2 + 1 - v8 + v26 >= 0;
v17 + 1 - v1 + v37 >= 0;
v6 + 1 - v2 + v4 >= 0;
1 - v13 + 1 - v48 + 1 - v47 >= 0;
1 - v10 + v41 + v11 >= 0;
v38 + v24 + v12 >= 0;
v17 + 1 - v23 + v3 >= 0;
1 - v23 + 1 - v3 + 1 - v2 >= 0;
1 - v30 + v39 + v27 >= 0;
v9 + 1 - v33 + 1 - v7 >= 0;
1 - v23 + 1 - v17 + v3 >= 0;
1 - v37 + v48 + 1 - v32 >= 0;
1 - v40 + 1 - v24 + v32 >= 0;
1 - v21 + v29 + v46 >= 0;
v15 + 1 - v13 + 1 - v1 >= 0;
v1 + 1 - v4 + 1 - v46 >= 0;
v13 + v24 + v45 >= 0;
1 - v2 + 1 - v47 + v5 >= 0;
v13 + 1 - v25 + v7 >= 0;
v25 + v42 + 1 - v46 >= 0;
1 - v27 + v50 + 1 - v15 >= 0;
v49 + 1 - v7 + v50 >= 0;
v19 + 1 - v35 + v43 >= 0;
v39 + 1 - v3 + 1 - v16 >= 0;
1 - v10 + v3 + 1 - v35 >= 0;
v11 + 1 - v7 + 1 - v30 >= 0;
v13 + v31 + 1 - v48 >= 0;
v13 + 1 - v21 + v12 >= 0;
1 - v11 + 1 - v24 + v26 >= 0;
1 - v1 + 1 - v41 + 1 - v34 >= 0;
1 - v3 + v11 + 1 - v19 >= 0;
v15 + 1 - v49 + v43 >= 0;
1 - v37 + v10 + 1 - v22 >= 0;
1 - v5 + v46 + 1 - v36 >= 0;
1 - v33 + 1 - v11 + v21 >= 0;
v33 + v2 + 1 - v17 >= 0;
1 - v1 + v6 + 1 - v49 >= 0;
v14 + 1 - v19 + v7 >= 0;
v12 + 1 - v34 + v37 >= 0;
v36 + 1 - v5 + v43 >= 0;
v48 + 1 - v47 + v39 >= 0;
1 - v46 + 1 - v50 + v8 >= 0;
1 - v29 + 1 - v40 + v36 >= 0;
v36 + v9 + v8 >= 0;
1 - v44 + v48 + v6 >= 0;
1 - v43 + v11 + 1 - v49 >= 0;
1 - v34 + v20 + v47 >= 0;
1 - v8 + 1 - v42 + v13 >= 0;
v17 + 1 - v12 + 1 - v19 >= 0;
1 - v26 + v28 + 1 - v29 >= 0;
1 - v34 + 1 - v6 + 1 - v2 >= 0;
v29 + v21 + v46 >= 0;
v48 + v18 + 1 - v1 >= 0;
1 - v21 + v28 + v40 >= 0;
1 - v19 + v28 + v1 >= 0;
1 - v39 + v43 + v20 >= 0;
v17 + 1 - v2 + 1 - v27 >= 0;
v22 + 1 - v25 + v5 >= 0;
1 - v50 + 1 - v6 + 1 - v43 >= 0;
v12 + v13 + 1 - v22 >= 0;
1 - v25 + 1 - v50 + 1 - v23 >= 0;
1 - v50 + v7 + v48 >= 0;
v14 + v41 + 1 - v49 >= 0;
1 - v34 + v13 + 1 - v40 >= 0;
1 - v21 + v13 + v46 >= 0;
1 - v22 + 1 - v49 + 1 - v6 >= 0;
1 - v41 + v43 + v2 >= 0;
v12 + v33 + 1 - v11 >= 0;
v35 + 1 - v37 + v34 >= 0;
v32 + v1 + v13 >= 0;
v45 + v24 + 1 - v40 >= 0;
1 - v9 + 1 - v21 + 1 - v17 >= 0;
v11 + 1 - v2 + 1 - v40 >= 0;
v46 + v13 + 1 - v18 >= 0;
v38 + v1 + v47 >= 0;
1 - v6 + v49 + v39 >= 0;
1 - v24 + v23 + v29 >= 0;
v20 + v11 + 1 - v21 >= 0;
v42 + v17 + v10 >= 0;
1 - v43 + v11 + 1 - v10 >= 0;
1 - v5 + v28 + 1 - v33 >= 0;
1 - v1 + 1 - v46 + v20 >= 0;
v48 + v6 + v31 >= 0;
v16 + v6 + 1 - v20 >= 0;
1 - v34 + 1 - v8 + v3 >= 0;
v28 + 1 - v1 + v2 >= 0;
1 - v7 + v44 + v20 >= 0;
1 - v46 + 1 - v21 + 1 - v13 >= 0;
1 - v29 + 1 - v6 + 1 - v32 >= 0;
1 - v40 + v14 + 1 - v4 >= 0;
v18 + 1 - v35 + 1 - v1 >= 0;
v43 + 1 - v1 + v38 >= 0;
1 - v20 + 1 - v22 + v32 >= 0;
1 - v8 + 1 - v28 + v26 >= 0;
1 - v36 + v15 + 1 - v19 >= 0;
1 - v40 + 1 - v25 + v10 >= 0;
v34 + 1 - v37 + 1 - v4 >= 0;
v32 + 1 - v19 + 1 - v2 >= 0;
v34 + 1 - v7 + v27 >= 0;
1 - v15 + v32 + v17 >= 0;
v9 + 1 - v10 + 1 - v50 >= 0;
1 - v22 + v33 + 1 - v31 >= 0;
v6 + 1 - v35 + 1 - v48 >= 0;
1 - v6 + 1 - v31 + 1 - v5 >= 0;
v35 + 1 - v4 + v32 >= 0;
1 - v26 + v47 + v13 >= 0;
1 - v19 + v37 + 1 - v45 >= 0;
1 - v29 + v18 + 1 - v33 >= 0;
1 - v24 + v30 + 1 - v10 >= 0;
v28 + 1 - v48 + 1 - v3 >= 0;
v12 + 1 - v25 + v37 >= 0;
1 - v35 + v19 + v38 >= 0;
v27 + v46 + 1 - v18 >= 0;
1 - v38 + v46 + 1 - v22 >= 0;
1 - v46 + v1 + 1 - v31 >= 0;
v38 + 1 - v21 + v4 >= 0;
v25 + v29 + 1 - v22 >= 0;
1 - v13 + v35 + v31 >= 0;
1 - v32 + v2 + 1 - v43 >= 0;
v25 + 1 - v26 + 1 - v7 >= 0;
1 - v11 + 1 - v5 + 1 - v39 >= 0;
v9 + 1 - v27 + v14 >= 0;
v34 + v19 + 1 - v37 >= 0;
1 - v36 + v44 + v45 >= 0;
v4 + v47 + 1 - v45 >= 0;
1 - v46 + v30 + 1 - v34 >= 0;
1 - v27 + 1 - v23 + 1 - v10 >= 0;
1 - v42 + 1 - v28 + v13 >= 0;
v21 + v27 + 1 - v19 >= 0;
1 - v35 + v8 + v37 >= 0;
1 - v9 + 1 - v14 + 1 - v35 >= 0;
v25 + v21 + 1 - v34 >= 0;
1 - v5 + 1 - v42 + v40 >= 0;
v3 + v10 + v33 >= 0;
1 - v3 + 1 - v22 + v10 >= 0;
1 - v40 + v4 + 1 - v1 >= 0;
1 - v6 + 1 - v27 + 1 - v19 >= 0;
v16 + 1 - v46 + v25 >= 0;
v19 + 1 - v31 + 1 - v18 >= 0;
1 - v25 + 1 - v1 + 1 - v3 >= 0;
1 - v49 + v22 + 1 - v46 >= 0;
v48 + 1 - v9 + v25 >= 0;
v49 + v13 + 1 - v12 >= 0;
1 - v31 + 1 - v37 + v21 >= 0;
0 <= v1 <= 1;
0 <= v2 <= 1;
0 <= v3 <= 1;
0 <= v4 <= 1;
0 <= v5 <= 1;
0 <= v6 <= 1;
0 <= v7 <= 1;
0 <= v8 <= 1;
0 <= v9 <= 1;
0 <= v10 <= 1;
0 <= v11 <= 1;
0 <= v12 <= 1;
0 <= v13 <= 1;
0 <= v14 <= 1;
0 <= v15 <= 1;
0 <= v16 <= 1;
0 <= v17 <= 1;
0 <= v18 <= 1;
0 <= v19 <= 1;
0 <= v20 <= 1;
0 <= v21 <= 1;
0 <= v22 <= 1;
0 <= v23 <= 1;
0 <= v24 <= 1;
0 <= v25 <= 1;
0 <= v26 <= 1;
0 <= v27 <= 1;
0 <= v28 <= 1;
0 <= v29 <= 1;
0 <= v30 <= 1;
0 <= v31 <= 1;
0 <= v32 <= 1;
0 <= v33 <= 1;
0 <= v34 <= 1;
0 <= v35 <= 1;
0 <= v36 <= 1;
0 <= v37 <= 1;
0 <= v38 <= 1;
0 <= v39 <= 1;
0 <= v40 <= 1;
0 <= v41 <= 1;
0 <= v42 <= 1;
0 <= v43 <= 1;
0 <= v44 <= 1;
0 <= v45 <= 1;
0 <= v46 <= 1;
0 <= v47 <= 1;
0 <= v48 <= 1;
0 <= v49 <= 1;
0 <= v50 <= 1;
